p cnf 110 1066
1 2 3 4 5 6 7 8 9 10 11 0
-10 -11 0
-9 -10 0
-9 -11 0
-8 -9 0
-8 -10 0
-8 -11 0
-7 -8 0
-7 -9 0
-7 -10 0
-7 -11 0
-6 -7 0
-6 -8 0
-6 -9 0
-6 -10 0
-6 -11 0
-5 -6 0
-5 -7 0
-5 -8 0
-5 -9 0
-5 -10 0
-5 -11 0
-4 -5 0
-4 -6 0
-4 -7 0
-4 -8 0
-4 -9 0
-4 -10 0
-4 -11 0
-3 -4 0
-3 -5 0
-3 -6 0
-3 -7 0
-3 -8 0
-3 -9 0
-3 -10 0
-3 -11 0
-2 -3 0
-2 -4 0
-2 -5 0
-2 -6 0
-2 -7 0
-2 -8 0
-2 -9 0
-2 -10 0
-2 -11 0
-1 -2 0
-1 -3 0
-1 -4 0
-1 -5 0
-1 -6 0
-1 -7 0
-1 -8 0
-1 -9 0
-1 -10 0
-1 -11 0
12 13 14 15 16 17 18 19 20 21 22 0
-21 -22 0
-20 -21 0
-20 -22 0
-19 -20 0
-19 -21 0
-19 -22 0
-18 -19 0
-18 -20 0
-18 -21 0
-18 -22 0
-17 -18 0
-17 -19 0
-17 -20 0
-17 -21 0
-17 -22 0
-16 -17 0
-16 -18 0
-16 -19 0
-16 -20 0
-16 -21 0
-16 -22 0
-15 -16 0
-15 -17 0
-15 -18 0
-15 -19 0
-15 -20 0
-15 -21 0
-15 -22 0
-14 -15 0
-14 -16 0
-14 -17 0
-14 -18 0
-14 -19 0
-14 -20 0
-14 -21 0
-14 -22 0
-13 -14 0
-13 -15 0
-13 -16 0
-13 -17 0
-13 -18 0
-13 -19 0
-13 -20 0
-13 -21 0
-13 -22 0
-12 -13 0
-12 -14 0
-12 -15 0
-12 -16 0
-12 -17 0
-12 -18 0
-12 -19 0
-12 -20 0
-12 -21 0
-12 -22 0
23 24 25 26 27 28 29 30 31 32 33 0
-32 -33 0
-31 -32 0
-31 -33 0
-30 -31 0
-30 -32 0
-30 -33 0
-29 -30 0
-29 -31 0
-29 -32 0
-29 -33 0
-28 -29 0
-28 -30 0
-28 -31 0
-28 -32 0
-28 -33 0
-27 -28 0
-27 -29 0
-27 -30 0
-27 -31 0
-27 -32 0
-27 -33 0
-26 -27 0
-26 -28 0
-26 -29 0
-26 -30 0
-26 -31 0
-26 -32 0
-26 -33 0
-25 -26 0
-25 -27 0
-25 -28 0
-25 -29 0
-25 -30 0
-25 -31 0
-25 -32 0
-25 -33 0
-24 -25 0
-24 -26 0
-24 -27 0
-24 -28 0
-24 -29 0
-24 -30 0
-24 -31 0
-24 -32 0
-24 -33 0
-23 -24 0
-23 -25 0
-23 -26 0
-23 -27 0
-23 -28 0
-23 -29 0
-23 -30 0
-23 -31 0
-23 -32 0
-23 -33 0
34 35 36 37 38 39 40 41 42 43 44 0
-43 -44 0
-42 -43 0
-42 -44 0
-41 -42 0
-41 -43 0
-41 -44 0
-40 -41 0
-40 -42 0
-40 -43 0
-40 -44 0
-39 -40 0
-39 -41 0
-39 -42 0
-39 -43 0
-39 -44 0
-38 -39 0
-38 -40 0
-38 -41 0
-38 -42 0
-38 -43 0
-38 -44 0
-37 -38 0
-37 -39 0
-37 -40 0
-37 -41 0
-37 -42 0
-37 -43 0
-37 -44 0
-36 -37 0
-36 -38 0
-36 -39 0
-36 -40 0
-36 -41 0
-36 -42 0
-36 -43 0
-36 -44 0
-35 -36 0
-35 -37 0
-35 -38 0
-35 -39 0
-35 -40 0
-35 -41 0
-35 -42 0
-35 -43 0
-35 -44 0
-34 -35 0
-34 -36 0
-34 -37 0
-34 -38 0
-34 -39 0
-34 -40 0
-34 -41 0
-34 -42 0
-34 -43 0
-34 -44 0
45 46 47 48 49 50 51 52 53 54 55 0
-54 -55 0
-53 -54 0
-53 -55 0
-52 -53 0
-52 -54 0
-52 -55 0
-51 -52 0
-51 -53 0
-51 -54 0
-51 -55 0
-50 -51 0
-50 -52 0
-50 -53 0
-50 -54 0
-50 -55 0
-49 -50 0
-49 -51 0
-49 -52 0
-49 -53 0
-49 -54 0
-49 -55 0
-48 -49 0
-48 -50 0
-48 -51 0
-48 -52 0
-48 -53 0
-48 -54 0
-48 -55 0
-47 -48 0
-47 -49 0
-47 -50 0
-47 -51 0
-47 -52 0
-47 -53 0
-47 -54 0
-47 -55 0
-46 -47 0
-46 -48 0
-46 -49 0
-46 -50 0
-46 -51 0
-46 -52 0
-46 -53 0
-46 -54 0
-46 -55 0
-45 -46 0
-45 -47 0
-45 -48 0
-45 -49 0
-45 -50 0
-45 -51 0
-45 -52 0
-45 -53 0
-45 -54 0
-45 -55 0
56 57 58 59 60 61 62 63 64 65 66 0
-65 -66 0
-64 -65 0
-64 -66 0
-63 -64 0
-63 -65 0
-63 -66 0
-62 -63 0
-62 -64 0
-62 -65 0
-62 -66 0
-61 -62 0
-61 -63 0
-61 -64 0
-61 -65 0
-61 -66 0
-60 -61 0
-60 -62 0
-60 -63 0
-60 -64 0
-60 -65 0
-60 -66 0
-59 -60 0
-59 -61 0
-59 -62 0
-59 -63 0
-59 -64 0
-59 -65 0
-59 -66 0
-58 -59 0
-58 -60 0
-58 -61 0
-58 -62 0
-58 -63 0
-58 -64 0
-58 -65 0
-58 -66 0
-57 -58 0
-57 -59 0
-57 -60 0
-57 -61 0
-57 -62 0
-57 -63 0
-57 -64 0
-57 -65 0
-57 -66 0
-56 -57 0
-56 -58 0
-56 -59 0
-56 -60 0
-56 -61 0
-56 -62 0
-56 -63 0
-56 -64 0
-56 -65 0
-56 -66 0
67 68 69 70 71 72 73 74 75 76 77 0
-76 -77 0
-75 -76 0
-75 -77 0
-74 -75 0
-74 -76 0
-74 -77 0
-73 -74 0
-73 -75 0
-73 -76 0
-73 -77 0
-72 -73 0
-72 -74 0
-72 -75 0
-72 -76 0
-72 -77 0
-71 -72 0
-71 -73 0
-71 -74 0
-71 -75 0
-71 -76 0
-71 -77 0
-70 -71 0
-70 -72 0
-70 -73 0
-70 -74 0
-70 -75 0
-70 -76 0
-70 -77 0
-69 -70 0
-69 -71 0
-69 -72 0
-69 -73 0
-69 -74 0
-69 -75 0
-69 -76 0
-69 -77 0
-68 -69 0
-68 -70 0
-68 -71 0
-68 -72 0
-68 -73 0
-68 -74 0
-68 -75 0
-68 -76 0
-68 -77 0
-67 -68 0
-67 -69 0
-67 -70 0
-67 -71 0
-67 -72 0
-67 -73 0
-67 -74 0
-67 -75 0
-67 -76 0
-67 -77 0
78 79 80 81 82 83 84 85 86 87 88 0
-87 -88 0
-86 -87 0
-86 -88 0
-85 -86 0
-85 -87 0
-85 -88 0
-84 -85 0
-84 -86 0
-84 -87 0
-84 -88 0
-83 -84 0
-83 -85 0
-83 -86 0
-83 -87 0
-83 -88 0
-82 -83 0
-82 -84 0
-82 -85 0
-82 -86 0
-82 -87 0
-82 -88 0
-81 -82 0
-81 -83 0
-81 -84 0
-81 -85 0
-81 -86 0
-81 -87 0
-81 -88 0
-80 -81 0
-80 -82 0
-80 -83 0
-80 -84 0
-80 -85 0
-80 -86 0
-80 -87 0
-80 -88 0
-79 -80 0
-79 -81 0
-79 -82 0
-79 -83 0
-79 -84 0
-79 -85 0
-79 -86 0
-79 -87 0
-79 -88 0
-78 -79 0
-78 -80 0
-78 -81 0
-78 -82 0
-78 -83 0
-78 -84 0
-78 -85 0
-78 -86 0
-78 -87 0
-78 -88 0
89 90 91 92 93 94 95 96 97 98 99 0
-98 -99 0
-97 -98 0
-97 -99 0
-96 -97 0
-96 -98 0
-96 -99 0
-95 -96 0
-95 -97 0
-95 -98 0
-95 -99 0
-94 -95 0
-94 -96 0
-94 -97 0
-94 -98 0
-94 -99 0
-93 -94 0
-93 -95 0
-93 -96 0
-93 -97 0
-93 -98 0
-93 -99 0
-92 -93 0
-92 -94 0
-92 -95 0
-92 -96 0
-92 -97 0
-92 -98 0
-92 -99 0
-91 -92 0
-91 -93 0
-91 -94 0
-91 -95 0
-91 -96 0
-91 -97 0
-91 -98 0
-91 -99 0
-90 -91 0
-90 -92 0
-90 -93 0
-90 -94 0
-90 -95 0
-90 -96 0
-90 -97 0
-90 -98 0
-90 -99 0
-89 -90 0
-89 -91 0
-89 -92 0
-89 -93 0
-89 -94 0
-89 -95 0
-89 -96 0
-89 -97 0
-89 -98 0
-89 -99 0
100 101 102 103 104 105 106 107 108 109 110 0
-109 -110 0
-108 -109 0
-108 -110 0
-107 -108 0
-107 -109 0
-107 -110 0
-106 -107 0
-106 -108 0
-106 -109 0
-106 -110 0
-105 -106 0
-105 -107 0
-105 -108 0
-105 -109 0
-105 -110 0
-104 -105 0
-104 -106 0
-104 -107 0
-104 -108 0
-104 -109 0
-104 -110 0
-103 -104 0
-103 -105 0
-103 -106 0
-103 -107 0
-103 -108 0
-103 -109 0
-103 -110 0
-102 -103 0
-102 -104 0
-102 -105 0
-102 -106 0
-102 -107 0
-102 -108 0
-102 -109 0
-102 -110 0
-101 -102 0
-101 -103 0
-101 -104 0
-101 -105 0
-101 -106 0
-101 -107 0
-101 -108 0
-101 -109 0
-101 -110 0
-100 -101 0
-100 -102 0
-100 -103 0
-100 -104 0
-100 -105 0
-100 -106 0
-100 -107 0
-100 -108 0
-100 -109 0
-100 -110 0
1 12 23 34 45 56 67 78 89 100 0
-89 -100 0
-78 -89 0
-78 -100 0
-67 -78 0
-67 -89 0
-67 -100 0
-56 -67 0
-56 -78 0
-56 -89 0
-56 -100 0
-45 -56 0
-45 -67 0
-45 -78 0
-45 -89 0
-45 -100 0
-34 -45 0
-34 -56 0
-34 -67 0
-34 -78 0
-34 -89 0
-34 -100 0
-23 -34 0
-23 -45 0
-23 -56 0
-23 -67 0
-23 -78 0
-23 -89 0
-23 -100 0
-12 -23 0
-12 -34 0
-12 -45 0
-12 -56 0
-12 -67 0
-12 -78 0
-12 -89 0
-12 -100 0
-1 -12 0
-1 -23 0
-1 -34 0
-1 -45 0
-1 -56 0
-1 -67 0
-1 -78 0
-1 -89 0
-1 -100 0
2 13 24 35 46 57 68 79 90 101 0
-90 -101 0
-79 -90 0
-79 -101 0
-68 -79 0
-68 -90 0
-68 -101 0
-57 -68 0
-57 -79 0
-57 -90 0
-57 -101 0
-46 -57 0
-46 -68 0
-46 -79 0
-46 -90 0
-46 -101 0
-35 -46 0
-35 -57 0
-35 -68 0
-35 -79 0
-35 -90 0
-35 -101 0
-24 -35 0
-24 -46 0
-24 -57 0
-24 -68 0
-24 -79 0
-24 -90 0
-24 -101 0
-13 -24 0
-13 -35 0
-13 -46 0
-13 -57 0
-13 -68 0
-13 -79 0
-13 -90 0
-13 -101 0
-2 -13 0
-2 -24 0
-2 -35 0
-2 -46 0
-2 -57 0
-2 -68 0
-2 -79 0
-2 -90 0
-2 -101 0
3 14 25 36 47 58 69 80 91 102 0
-91 -102 0
-80 -91 0
-80 -102 0
-69 -80 0
-69 -91 0
-69 -102 0
-58 -69 0
-58 -80 0
-58 -91 0
-58 -102 0
-47 -58 0
-47 -69 0
-47 -80 0
-47 -91 0
-47 -102 0
-36 -47 0
-36 -58 0
-36 -69 0
-36 -80 0
-36 -91 0
-36 -102 0
-25 -36 0
-25 -47 0
-25 -58 0
-25 -69 0
-25 -80 0
-25 -91 0
-25 -102 0
-14 -25 0
-14 -36 0
-14 -47 0
-14 -58 0
-14 -69 0
-14 -80 0
-14 -91 0
-14 -102 0
-3 -14 0
-3 -25 0
-3 -36 0
-3 -47 0
-3 -58 0
-3 -69 0
-3 -80 0
-3 -91 0
-3 -102 0
4 15 26 37 48 59 70 81 92 103 0
-92 -103 0
-81 -92 0
-81 -103 0
-70 -81 0
-70 -92 0
-70 -103 0
-59 -70 0
-59 -81 0
-59 -92 0
-59 -103 0
-48 -59 0
-48 -70 0
-48 -81 0
-48 -92 0
-48 -103 0
-37 -48 0
-37 -59 0
-37 -70 0
-37 -81 0
-37 -92 0
-37 -103 0
-26 -37 0
-26 -48 0
-26 -59 0
-26 -70 0
-26 -81 0
-26 -92 0
-26 -103 0
-15 -26 0
-15 -37 0
-15 -48 0
-15 -59 0
-15 -70 0
-15 -81 0
-15 -92 0
-15 -103 0
-4 -15 0
-4 -26 0
-4 -37 0
-4 -48 0
-4 -59 0
-4 -70 0
-4 -81 0
-4 -92 0
-4 -103 0
5 16 27 38 49 60 71 82 93 104 0
-93 -104 0
-82 -93 0
-82 -104 0
-71 -82 0
-71 -93 0
-71 -104 0
-60 -71 0
-60 -82 0
-60 -93 0
-60 -104 0
-49 -60 0
-49 -71 0
-49 -82 0
-49 -93 0
-49 -104 0
-38 -49 0
-38 -60 0
-38 -71 0
-38 -82 0
-38 -93 0
-38 -104 0
-27 -38 0
-27 -49 0
-27 -60 0
-27 -71 0
-27 -82 0
-27 -93 0
-27 -104 0
-16 -27 0
-16 -38 0
-16 -49 0
-16 -60 0
-16 -71 0
-16 -82 0
-16 -93 0
-16 -104 0
-5 -16 0
-5 -27 0
-5 -38 0
-5 -49 0
-5 -60 0
-5 -71 0
-5 -82 0
-5 -93 0
-5 -104 0
6 17 28 39 50 61 72 83 94 105 0
-94 -105 0
-83 -94 0
-83 -105 0
-72 -83 0
-72 -94 0
-72 -105 0
-61 -72 0
-61 -83 0
-61 -94 0
-61 -105 0
-50 -61 0
-50 -72 0
-50 -83 0
-50 -94 0
-50 -105 0
-39 -50 0
-39 -61 0
-39 -72 0
-39 -83 0
-39 -94 0
-39 -105 0
-28 -39 0
-28 -50 0
-28 -61 0
-28 -72 0
-28 -83 0
-28 -94 0
-28 -105 0
-17 -28 0
-17 -39 0
-17 -50 0
-17 -61 0
-17 -72 0
-17 -83 0
-17 -94 0
-17 -105 0
-6 -17 0
-6 -28 0
-6 -39 0
-6 -50 0
-6 -61 0
-6 -72 0
-6 -83 0
-6 -94 0
-6 -105 0
7 18 29 40 51 62 73 84 95 106 0
-95 -106 0
-84 -95 0
-84 -106 0
-73 -84 0
-73 -95 0
-73 -106 0
-62 -73 0
-62 -84 0
-62 -95 0
-62 -106 0
-51 -62 0
-51 -73 0
-51 -84 0
-51 -95 0
-51 -106 0
-40 -51 0
-40 -62 0
-40 -73 0
-40 -84 0
-40 -95 0
-40 -106 0
-29 -40 0
-29 -51 0
-29 -62 0
-29 -73 0
-29 -84 0
-29 -95 0
-29 -106 0
-18 -29 0
-18 -40 0
-18 -51 0
-18 -62 0
-18 -73 0
-18 -84 0
-18 -95 0
-18 -106 0
-7 -18 0
-7 -29 0
-7 -40 0
-7 -51 0
-7 -62 0
-7 -73 0
-7 -84 0
-7 -95 0
-7 -106 0
8 19 30 41 52 63 74 85 96 107 0
-96 -107 0
-85 -96 0
-85 -107 0
-74 -85 0
-74 -96 0
-74 -107 0
-63 -74 0
-63 -85 0
-63 -96 0
-63 -107 0
-52 -63 0
-52 -74 0
-52 -85 0
-52 -96 0
-52 -107 0
-41 -52 0
-41 -63 0
-41 -74 0
-41 -85 0
-41 -96 0
-41 -107 0
-30 -41 0
-30 -52 0
-30 -63 0
-30 -74 0
-30 -85 0
-30 -96 0
-30 -107 0
-19 -30 0
-19 -41 0
-19 -52 0
-19 -63 0
-19 -74 0
-19 -85 0
-19 -96 0
-19 -107 0
-8 -19 0
-8 -30 0
-8 -41 0
-8 -52 0
-8 -63 0
-8 -74 0
-8 -85 0
-8 -96 0
-8 -107 0
9 20 31 42 53 64 75 86 97 108 0
-97 -108 0
-86 -97 0
-86 -108 0
-75 -86 0
-75 -97 0
-75 -108 0
-64 -75 0
-64 -86 0
-64 -97 0
-64 -108 0
-53 -64 0
-53 -75 0
-53 -86 0
-53 -97 0
-53 -108 0
-42 -53 0
-42 -64 0
-42 -75 0
-42 -86 0
-42 -97 0
-42 -108 0
-31 -42 0
-31 -53 0
-31 -64 0
-31 -75 0
-31 -86 0
-31 -97 0
-31 -108 0
-20 -31 0
-20 -42 0
-20 -53 0
-20 -64 0
-20 -75 0
-20 -86 0
-20 -97 0
-20 -108 0
-9 -20 0
-9 -31 0
-9 -42 0
-9 -53 0
-9 -64 0
-9 -75 0
-9 -86 0
-9 -97 0
-9 -108 0
10 21 32 43 54 65 76 87 98 109 0
-98 -109 0
-87 -98 0
-87 -109 0
-76 -87 0
-76 -98 0
-76 -109 0
-65 -76 0
-65 -87 0
-65 -98 0
-65 -109 0
-54 -65 0
-54 -76 0
-54 -87 0
-54 -98 0
-54 -109 0
-43 -54 0
-43 -65 0
-43 -76 0
-43 -87 0
-43 -98 0
-43 -109 0
-32 -43 0
-32 -54 0
-32 -65 0
-32 -76 0
-32 -87 0
-32 -98 0
-32 -109 0
-21 -32 0
-21 -43 0
-21 -54 0
-21 -65 0
-21 -76 0
-21 -87 0
-21 -98 0
-21 -109 0
-10 -21 0
-10 -32 0
-10 -43 0
-10 -54 0
-10 -65 0
-10 -76 0
-10 -87 0
-10 -98 0
-10 -109 0
11 22 33 44 55 66 77 88 99 110 0
-99 -110 0
-88 -99 0
-88 -110 0
-77 -88 0
-77 -99 0
-77 -110 0
-66 -77 0
-66 -88 0
-66 -99 0
-66 -110 0
-55 -66 0
-55 -77 0
-55 -88 0
-55 -99 0
-55 -110 0
-44 -55 0
-44 -66 0
-44 -77 0
-44 -88 0
-44 -99 0
-44 -110 0
-33 -44 0
-33 -55 0
-33 -66 0
-33 -77 0
-33 -88 0
-33 -99 0
-33 -110 0
-22 -33 0
-22 -44 0
-22 -55 0
-22 -66 0
-22 -77 0
-22 -88 0
-22 -99 0
-22 -110 0
-11 -22 0
-11 -33 0
-11 -44 0
-11 -55 0
-11 -66 0
-11 -77 0
-11 -88 0
-11 -99 0
-11 -110 0
